c read Graph
c width = 149
c time = 112 ms
c width = 13
c time = 197 ms
c width = 12
c time = 253 ms
c width = 11
c time = 280 ms
c width = 10
c time = 1513 ms
c width = 10
c time = 4954 ms
s td 149 11 162
b 1 1 2 19
b 2 2 3 19 20
b 3 16 17 35 36
b 4 3 19 20 37
b 5 16 35 36 54
b 6 109 127 128 146
b 7 126 143 144 161
b 8 109 128 146 147
b 9 126 143 160 161
b 10 3 4 5 22
b 11 3 5 21 22 38 55
b 12 5 21 22 38 40 55 57
b 13 5 22 38 40 55 57 74
b 14 5 22 40 55 57 74 91
b 15 5 22 24 40 41 57 74 91
b 16 5 24 40 41 57 59 74 76 91
b 17 40 57 58 59 76
b 18 5 24 41 57 59 74 76 91 93
b 19 57 74 75 76 93
b 20 5 24 41 59 74 76 91 93 112 131 150
b 21 5 24 41 59 76 93 95 112 131 150
b 22 76 93 94 95 112
b 23 5 24 41 59 76 95 112 114 131 150
b 24 5 24 41 59 76 95 114 131 133 150
b 25 5 24 41 59 76 78 95 114 133 150
b 26 5 24 41 59 60 78 95 114 133 150
b 27 5 24 41 43 60 78 95 114 133 150
b 28 5 24 43 60 78 95 97 114 133 150
b 29 5 24 43 60 78 79 97 114 133 150
b 30 5 24 43 60 79 97 114 116 133 150
b 31 5 24 43 60 79 97 98 116 133 150
b 32 5 24 43 60 62 79 98 116 133 150
b 33 5 24 43 62 79 81 98 116 133 150
b 34 62 79 80 81 98
b 35 5 24 43 62 81 98 116 133 135 150 154
b 36 5 24 43 62 81 98 116 117 135 136 154
b 37 5 9 24 26 43 62 81 98 117 136 154
b 38 9 26 43 45 62 81 98 117 136 154
b 39 26 43 45 62 81 98 117 136 154
b 40 26 43 44 45 62
b 41 9 26 28 45 62 81 98 117 136 154
b 42 9 26 27 28 45
b 43 9 28 45 62 81 98 100 117 136 154
b 44 81 98 99 100 117
b 45 9 28 45 62 64 81 100 117 136 154
b 46 45 62 63 64 81
b 47 9 28 45 47 64 81 100 117 136 154
b 48 9 28 47 64 81 100 117 119 136 154
b 49 100 117 118 119 136
b 50 9 28 47 64 81 83 100 119 136 154
b 51 9 28 47 64 66 83 100 119 136 154
b 52 47 64 65 66 83
b 53 9 28 47 66 83 100 102 119 136 154
b 54 83 100 102 119 136 154
b 55 83 100 101 102 119
b 56 9 28 47 66 83 85 102 119 136 154
b 57 66 83 84 85 102
b 58 9 28 47 66 85 102 119 136 138 154 156
b 59 9 28 47 66 85 102 119 121 138 154 156
b 60 9 28 47 66 85 102 121 138 140 156 158
b 61 121 138 139 140 156 158
b 62 139 156 157 158
b 63 9 13 28 30 47 66 85 102 121 140 158
b 64 13 30 47 49 66 85 102 121 140 158
b 65 30 47 49 66 85 102 121 140 158
b 66 30 47 48 49 66
b 67 13 30 32 49 66 85 102 121 140 158
b 68 13 32 49 66 85 102 104 121 140 158
b 69 85 102 103 104 121
b 70 13 32 49 66 85 104 121 123 140 158
b 71 104 121 123 140 158
b 72 104 121 122 123 140
b 73 13 30 31 32 49
b 74 9 11 13 28 30 47
b 75 9 10 11 28
b 76 11 28 29 30 47
b 77 11 12 13 30
b 78 102 119 120 121 138
b 79 119 136 137 138 154 156
b 80 137 154 155 156
b 81 64 81 82 83 100
b 82 28 45 46 47 64
b 83 5 7 9 24 26 43
b 84 5 6 7 24
b 85 7 24 25 26 43
b 86 7 8 9 26
b 87 116 133 135 150 152 154
b 88 116 133 134 135 152
b 89 135 152 153 154
b 90 133 150 151 152
b 91 43 60 61 62 79
b 92 97 114 115 116 133
b 93 78 95 96 97 114
b 94 24 41 42 43 60
b 95 59 76 77 78 95
b 96 114 131 132 133 150
b 97 95 112 113 114 131
b 98 74 91 93 112 131 148 150
b 99 131 148 149 150
b 100 74 91 93 112 129 131 148
b 101 112 129 130 131 148
b 102 74 91 93 110 112 129 148
b 103 93 110 111 112 129
b 104 74 91 92 93 110
b 105 91 110 129 147 148
b 106 91 109 110 129 147
b 107 109 110 128 129 147
b 108 5 22 23 24 41
b 109 55 73 74 91
b 110 38 55 56 57 74
b 111 21 38 39 40 57
b 112 3 21 37 38 55
b 113 3 20 21 37 38
b 114 13 32 49 66 68 85 104 123 140 158
b 115 13 32 49 68 85 87 104 123 140 158
b 116 13 32 49 68 87 89 106 108 123 140 158
b 117 13 32 49 68 87 104 106 123 140 158
b 118 13 32 49 68 87 106 108 123 140 158
b 119 49 66 67 68 85
b 120 68 85 86 87 104
b 121 13 32 49 68 70 87 89 106 108
b 122 70 87 88 89 106
b 123 13 32 49 51 68 70 87 89 108
b 124 32 49 50 51 68
b 125 51 68 69 70 87
b 126 13 32 51 70 72 89 108
b 127 72 89 90 108
b 128 13 15 32 51 70 72 89
b 129 13 14 15 32
b 130 15 32 51 53 70 72 89
b 131 53 70 71 72 89
b 132 15 32 34 51 53 70 72
b 133 34 51 52 53 70
b 134 15 32 33 34 51
b 135 15 34 53 54 72
b 136 15 16 34 53 54
b 137 16 34 35 53 54
b 138 87 104 105 106 123
b 139 89 106 108 123 140 142 158 160
b 140 89 106 108 123 125 142 160
b 141 106 123 124 125 142
b 142 89 106 107 108 125
b 143 108 125 126 142 160
b 144 125 126 142 143 160
b 145 123 140 141 142 158 160
b 146 141 158 159 160
b 147 144 161 162
b 148 127 145 146
b 149 17 18 36
1 2
2 4
3 149
3 5
4 113
5 137
6 148
6 8
7 147
7 9
8 107
9 144
10 11
11 112
11 12
12 111
12 13
13 110
13 14
14 109
14 15
15 108
15 16
16 18
16 17
18 20
18 19
20 98
20 21
21 23
21 22
23 97
23 24
24 96
24 25
25 95
25 26
26 27
27 94
27 28
28 93
28 29
29 30
30 92
30 31
31 32
32 91
32 33
33 35
33 34
35 36
35 87
36 37
37 83
37 38
38 41
38 39
39 40
41 43
41 42
43 45
43 44
45 47
45 46
47 82
47 48
48 50
48 49
50 81
50 51
51 53
51 52
53 56
53 55
53 54
56 58
56 57
58 79
58 59
59 78
59 60
60 63
60 61
61 62
63 74
63 64
64 67
64 65
65 66
67 68
67 73
68 69
68 70
70 114
70 72
70 71
74 75
74 76
74 77
79 80
83 86
83 85
83 84
87 88
87 89
87 90
98 99
98 100
100 101
100 102
102 105
102 104
102 103
105 106
106 107
112 113
114 119
114 115
115 120
115 117
116 121
116 139
116 118
117 138
117 118
121 122
121 123
123 124
123 125
123 126
126 127
126 128
128 129
128 130
130 131
130 132
132 135
132 134
132 133
135 136
136 137
139 140
139 145
140 143
140 142
140 141
143 144
145 146
